22 24 25 26 27 28 29 30 32 31 36 37 38 33 34 35 557 558 559 560 561 562 563 565 566 564 549 548 550 551 101 102 100 99 552 553 554 98 97 96 95 94 93 92 91 555 556 41 40 39 42 43 44 45 46 47 48 49 50 84 51 52 54 53 55 56 83 82 85 86 87 90 89 88 78 62 79 80 81 57 58 59 60 61 63 64 76 77 75 74 73 119 118 120 121 122 123 71 72 65 66 67 68 70 69 124 125 126 127 128 129 130 131 132 133 134 135 136 137 138 139 140 141 151 150 149 152 148 147 142 143 144 146 145 158 157 159 156 155 153 165 164 154 160 113 161 162 168 163 167 166 198 199 200 201 202 204 203 208 207 206 205 209 210 211 212 213 214 215 216 217 223 224 222 221 220 218 219 193 194 195 196 197 184 183 185 186 188 187 182 179 181 180 178 177 169 171 170 172 110 111 112 114 115 116 117 106 105 104 103 547 546 545 544 543 541 542 107 109 108 173 174 175 176 540 538 539 537 536 484 485 483 482 481 480 479 478 477 476 475 567 568 569 570 474 473 472 471 470 495 519 518 494 524 525 493 492 491 490 486 487 535 534 488 489 530 531 532 533 231 230 229 228 227 189 190 192 191 226 225 232 233 234 235 236 528 529 526 523 522 521 520 517 516 515 514 513 527 512 511 510 509 237 240 239 238 246 247 245 244 243 242 241 248 249 250 251 252 254 253 255 256 257 300 301 302 508 507 506 307 303 304 306 305 318 317 319 320 321 297 298 299 258 259 260 261 262 263 264 265 266 267 271 272 269 268 270 296 295 294 293 291 292 273 274 275 290 289 288 276 277 278 279 282 281 280 287 286 285 284 283 334 335 336 337 338 339 333 332 331 330 340 341 342 343 344 345 346 364 363 362 347 348 349 350 351 415 416 414 413 352 353 354 355 357 358 359 361 360 401 403 402 356 412 411 410 418 417 419 420 421 422 423 424 425 426 427 428 429 430 432 437 438 436 435 434 433 431 381 380 379 378 377 376 375 395 372 371 396 394 393 391 392 390 389 388 387 386 382 383 384 385 409 408 407 406 405 404 400 399 397 398 370 369 368 365 367 366 329 328 327 326 325 324 323 322 373 374 315 314 316 313 312 451 450 441 440 449 448 447 446 442 445 444 443 439 454 455 456 457 458 459 460 463 462 461 452 453 499 500 501 311 310 309 308 505 504 503 502 498 497 496 464 465 469 468 467 466 571 572 573 0 1 2 3 4 5 6 7 8 9 10 11 14 15 16 17 18 19 20 21 13 12 23